; benchmark generated from python API
(set-info :status unknown)
(declare-datatypes ((RealState 0)) (((RMk1 (rval1 Real)) (RMk2 (rval2 Real)))))
 (declare-fun x1 () Real)
(assert
 (let (($x6003 (exists ((?y1_st RealState) (val!184 Real) )(let (($x12673 (exists ((?y2 Real) )(! (let (($x1060 (forall ((?y3 Real) )(! (let (($x11146 (exists ((?y4 Real) )(! (exists ((?y5 Real) )(! (let ((?x2124 (- 22.0)))
 (let ((?x9367 (- 26.0)))
 (let ((?x5387 (* ?x9367 x1)))
 (let ((?x2751 (+ (+ (* (- 21.0) ?y5) (* 47.0 ?y4)) (* 48.0 ?y3))))
 (> (+ (+ ?x2751 (* 75.0 (rval2 ?y1_st))) ?x5387) ?x2124))))) :qid k!20))
  :qid k!20))
 ))
 (let (($x5254 (forall ((?y4 Real) )(! (let (($x8683 (= (+ (+ (* (- 50.0) ?y4) (* (- 23.0) ?y3)) (* 83.0 x1)) 17.0)))
 (or (= (+ (+ (* 88.0 ?y3) (* 56.0 ?y2)) (* 21.0 x1)) 0.0) $x8683)) :qid k!20))
 ))
 (let (($x12200 (exists ((?y4 Real) )(! (let ((?x10797 (- 75.0)))
 (let ((?x2681 (* 14.0 x1)))
 (let ((?x5731 (- 4.0)))
 (let ((?x763 (* ?x5731 ?y2)))
 (let ((?x3919 (+ (+ (* 26.0 ?y4) (* 66.0 ?y3)) ?x763)))
 (and (<= (+ (* 21.0 ?y3) (* (- 62.0) (rval2 ?y1_st))) 71.0) (> (+ (+ ?x3919 (* (- 78.0) (rval2 ?y1_st))) ?x2681) ?x10797))))))) :qid k!20))
 ))
 (or (and $x12200 $x5254) $x11146)))) :qid k!20))
 ))
 (let (($x6393 (forall ((?y3 Real) )(! (exists ((?y5 Real) )(! (let (($x7811 (<= (+ (+ (* 85.0 ?y3) (* 90.0 (rval2 ?y1_st))) (* 34.0 x1)) 60.0)))
 (let ((?x5402 (* (- 12.0) x1)))
 (let ((?x4273 (+ (+ (+ (* (- 11.0) ?y5) (* 75.0 ?y3)) (* 86.0 (rval2 ?y1_st))) ?x5402)))
 (let ((?x2587 (* 44.0 x1)))
 (let ((?x5580 (+ (+ (* 15.0 ?y5) (* 49.0 ?y3)) (* (- 45.0) ?y2))))
 (let ((?x13059 (- 80.0)))
 (let ((?x8019 (+ (+ (* (- 23.0) ?y5) (* (- 75.0) ?y3)) (* (- 24.0) x1))))
 (let (($x593 (< ?x8019 ?x13059)))
 (let (($x11024 (and $x593 (<= (+ (+ ?x5580 (* (- 49.0) (rval2 ?y1_st))) ?x2587) 0.0))))
 (and $x11024 (or (< ?x4273 43.0) $x7811))))))))))) :qid k!20))
  :qid k!20))
 ))
 (and $x6393 $x1060))) :qid k!20))
 ))
 (let (($x10579 (exists ((?y2 Real) )(! (exists ((?y4 Real) )(! (exists ((?y5 Real) )(! (exists ((?y6 Real) )(! (let ((?x6457 (* 52.0 x1)))
 (let ((?x277 (rval2 ?y1_st)))
 (let ((?x6075 (* 98.0 ?x277)))
 (let ((?x6357 (* 21.0 ?y4)))
 (let ((?x12275 (+ (+ (* 63.0 ?y6) (* (- 84.0) ?y5)) ?x6357)))
 (let ((?x11028 (+ (+ (* (- 33.0) ?y6) (* (- 100.0) ?y5)) (* (- 71.0) ?y4))))
 (let ((?x11003 (+ ?x11028 (* (- 33.0) ?y2))))
 (let ((?x1229 (- 69.0)))
 (let ((?x7841 (* ?x1229 x1)))
 (let ((?x6864 (* 90.0 ?x277)))
 (let ((?x6431 (+ (+ (+ (* (- 23.0) ?y6) (* (- 100.0) ?y5)) (* 80.0 ?y4)) (* (- 32.0) ?y2))))
 (let (($x8490 (or (= (+ (+ ?x6431 ?x6864) ?x7841) 12.0) (<= (+ ?x11003 (* 49.0 ?x277)) 0.0))))
 (or $x8490 (< (+ (+ ?x12275 ?x6075) ?x6457) 34.0)))))))))))))) :qid k!20))
  :qid k!20))
  :qid k!20))
  :qid k!20))
 ))
 (let (($x11628 (not (= ?y1_st (RMk1 val!184)))))
 (and $x11628 (or $x10579 $x12673))))))
 ))
 (let (($x570 (exists ((?y1_st RealState) (val!182 Real) )(exists ((?y2_st RealState) (val!183 Real) )(let (($x2287 (forall ((?y4 Real) )(! (let (($x3131 (forall ((?y6 Real) )(! (let ((?x1438 (- 97.0)))
 (let ((?x8708 (* (- 20.0) x1)))
 (let ((?x7335 (+ (+ (+ (* 80.0 ?y6) (* 68.0 ?y4)) (* 86.0 (rval2 ?y2_st))) (* (- 19.0) (rval2 ?y1_st)))))
 (= (+ ?x7335 ?x8708) ?x1438)))) :qid k!20))
 ))
 (let ((?x10180 (- 87.0)))
 (let ((?x614 (* (- 10.0) x1)))
 (let ((?x9276 (+ (+ (* (- 69.0) (rval2 ?y2_st)) (* (- 3.0) (rval2 ?y1_st))) ?x614)))
 (let (($x1003 (< (+ (+ (* 95.0 ?y4) (* (- 35.0) (rval2 ?y2_st))) (* 18.0 x1)) 46.0)))
 (let (($x733 (< (+ (* 90.0 ?y4) (* (- 2.0) x1)) 1.0)))
 (let (($x2448 (forall ((?y6 Real) )(! (let ((?x8786 (* 90.0 x1)))
 (let ((?x6580 (+ (+ (* 81.0 ?y4) (* 41.0 (rval2 ?y2_st))) (* (- 67.0) (rval2 ?y1_st)))))
 (let ((?x7264 (- 39.0)))
 (let ((?x4391 (* 18.0 x1)))
 (let ((?x8480 (+ (+ (+ (* 94.0 ?y6) (* (- 60.0) ?y4)) (* 59.0 (rval2 ?y2_st))) ?x4391)))
 (or (not (= ?x8480 ?x7264)) (<= (+ ?x6580 ?x8786) 17.0))))))) :qid k!20))
 ))
 (and $x2448 (or (and $x733 (and $x1003 (<= ?x9276 ?x10180))) $x3131))))))))) :qid k!20))
 ))
 (let (($x9978 (forall ((?y4 Real) )(! (let ((?x1416 (- 88.0)))
 (not (= (+ (* 51.0 (rval2 ?y2_st)) (* (- 6.0) (rval2 ?y1_st))) ?x1416))) :qid k!20))
 ))
 (let (($x5288 (forall ((?y4 Real) )(! (let ((?x867 (- 9.0)))
 (let ((?x12453 (- 79.0)))
 (let ((?x10952 (* ?x12453 x1)))
 (= (+ (+ (* (- 60.0) ?y4) (* 92.0 (rval2 ?y1_st))) ?x10952) ?x867)))) :qid k!20))
 ))
 (let ((?x6467 (- 76.0)))
 (let ((?x7068 (* ?x6467 x1)))
 (let (($x8423 (= (+ (+ (* 82.0 (rval2 ?y2_st)) (* (- 97.0) (rval2 ?y1_st))) ?x7068) 96.0)))
 (let ((?x1905 (- 58.0)))
 (let ((?x4301 (* ?x1905 x1)))
 (let (($x8121 (<= (+ (+ (* 15.0 (rval2 ?y2_st)) (* 38.0 (rval2 ?y1_st))) ?x4301) 38.0)))
 (let ((?x269 (- 13.0)))
 (let ((?x10640 (* 72.0 x1)))
 (let ((?x10629 (+ (+ (* (- 28.0) (rval2 ?y2_st)) (* (- 4.0) (rval2 ?y1_st))) ?x10640)))
 (let (($x12141 (or (> ?x10629 0.0) (<= (+ (* (- 53.0) (rval2 ?y2_st)) (* 69.0 (rval2 ?y1_st))) ?x269))))
 (let (($x2023 (exists ((?y3 Real) )(! (let ((?x11006 (* 19.0 x1)))
 (let ((?x2123 (+ (+ (* 31.0 ?y3) (* (- 61.0) (rval2 ?y2_st))) (* (- 51.0) (rval2 ?y1_st)))))
 (let ((?x254 (- 21.0)))
 (let ((?x11171 (+ (+ (* (- 45.0) ?y3) (* 47.0 (rval2 ?y2_st))) (* 54.0 (rval2 ?y1_st)))))
 (and (not (= ?x11171 ?x254)) (= (+ ?x2123 ?x11006) 0.0)))))) :qid k!20))
 ))
 (let (($x10244 (forall ((?y3 Real) )(! (forall ((?y5 Real) )(! (not (= (* (- 83.0) (rval2 ?y1_st)) 35.0)) :qid k!20))
  :qid k!20))
 ))
 (let (($x12215 (forall ((?y3 Real) )(! (let (($x10282 (exists ((?y4 Real) )(! (let ((?x1905 (- 58.0)))
 (let ((?x4102 (- 19.0)))
 (let ((?x6726 (* ?x4102 x1)))
 (= (+ (+ (* (- 69.0) (rval2 ?y2_st)) (* 48.0 (rval2 ?y1_st))) ?x6726) ?x1905)))) :qid k!20))
 ))
 (let ((?x10353 (- 48.0)))
 (let ((?x5004 (* ?x10353 x1)))
 (let (($x9962 (<= (+ (+ (* 19.0 (rval2 ?y2_st)) (* 32.0 (rval2 ?y1_st))) ?x5004) 0.0)))
 (and $x9962 $x10282))))) :qid k!20))
 ))
 (let (($x3067 (or (and $x12215 $x10244) (or (or $x2023 (or $x12141 (and $x8121 (not $x8423)))) (or $x5288 $x9978)))))
 (let (($x8080 (forall ((?y4 Real) )(! (let (($x3645 (exists ((?y5 Real) )(! (let ((?x6917 (- 2.0)))
 (< (+ (+ (* 58.0 ?y4) (* 40.0 (rval2 ?y2_st))) (* (- 15.0) x1)) ?x6917)) :qid k!20))
 ))
 (let ((?x10180 (- 87.0)))
 (let ((?x6783 (* ?x10180 x1)))
 (let (($x7298 (= (+ (+ (* (- 25.0) (rval2 ?y2_st)) (* 3.0 (rval2 ?y1_st))) ?x6783) 39.0)))
 (let ((?x8059 (+ (+ (* 29.0 ?y4) (* 43.0 (rval2 ?y2_st))) (* (- 30.0) (rval2 ?y1_st)))))
 (and (and (not (= ?x8059 0.0)) $x7298) $x3645)))))) :qid k!20))
 ))
 (let (($x3359 (exists ((?y4 Real) )(! (forall ((?y5 Real) )(! (let ((?x2208 (- 94.0)))
 (let ((?x1741 (* ?x2208 x1)))
 (let ((?x277 (rval2 ?y1_st)))
 (let ((?x3818 (* 48.0 ?x277)))
 (let ((?x9072 (+ (+ (+ (* 47.0 ?y5) (* (- 30.0) ?y4)) (* 27.0 (rval2 ?y2_st))) ?x3818)))
 (>= (+ ?x9072 ?x1741) 70.0)))))) :qid k!20))
  :qid k!20))
 ))
 (let (($x11628 (not (= ?y2_st (RMk1 val!183)))))
 (let (($x6532 (not (= ?y1_st (RMk1 val!182)))))
 (and $x6532 $x11628 (or (and (or $x3359 $x8080) $x3067) $x2287))))))))))))))))))))))))
 )
 ))
 (let (($x7685 (exists ((?y2_st RealState) (val!180 Real) )(exists ((?y3_st RealState) (val!181 Real) )(forall ((?y4 Real) )(forall ((?y5 Real) )(let ((?x10497 (* 22.0 x1)))
 (let ((?x6796 (+ (+ (+ (* 53.0 ?y5) (* 95.0 ?y4)) (* (- 14.0) (rval2 ?y3_st))) (* (- 40.0) (rval2 ?y2_st)))))
 (let (($x5450 (and (= (+ ?x6796 ?x10497) 20.0) (>= (+ (* (- 14.0) ?y5) (* 45.0 (rval2 ?y2_st))) (- 2.0)))))
 (let ((?x5900 (- 5.0)))
 (let ((?x9810 (* ?x5900 x1)))
 (let ((?x6497 (+ (+ (+ (* 39.0 ?y5) (* 57.0 ?y4)) (* 54.0 (rval2 ?y3_st))) (* (- 88.0) (rval2 ?y2_st)))))
 (let ((?x7256 (+ (+ (+ (* 47.0 ?y5) (* 75.0 ?y4)) (* (- 8.0) (rval2 ?y3_st))) (* (- 18.0) (rval2 ?y2_st)))))
 (let ((?x12101 (- 51.0)))
 (let ((?x6614 (rval2 ?y3_st)))
 (let ((?x5731 (- 4.0)))
 (let ((?x8491 (* ?x5731 ?x6614)))
 (let ((?x5683 (- 95.0)))
 (let ((?x11223 (* ?x5683 ?y5)))
 (let ((?x11520 (+ ?x11223 (* (- 42.0) ?y4))))
 (let ((?x2772 (+ (+ (+ (* (- 18.0) ?y5) (* (- 70.0) ?y4)) (* 60.0 ?x6614)) (* (- 61.0) (rval2 ?y2_st)))))
 (let (($x7413 (and (<= ?x2772 68.0) (> (+ (+ ?x11520 ?x8491) (* 67.0 (rval2 ?y2_st))) ?x12101))))
 (let ((?x1089 (- 14.0)))
 (let ((?x5306 (* ?x1089 x1)))
 (let ((?x277 (rval2 ?y2_st)))
 (let ((?x6075 (* 98.0 ?x277)))
 (let ((?x5496 (+ (+ (+ (* 29.0 ?y5) (* 97.0 ?y4)) (* (- 37.0) ?x6614)) ?x6075)))
 (let ((?x301 (* 3.0 x1)))
 (let ((?x358 (+ (+ (+ (* (- 38.0) ?y5) (* 69.0 ?y4)) (* 99.0 ?x6614)) (* 72.0 ?x277))))
 (let (($x2142 (and (or (not (= (+ ?x358 ?x301) 45.0)) (not (= (+ ?x5496 ?x5306) 96.0))) $x7413)))
 (let (($x5842 (or $x2142 (or (or (not (= ?x7256 42.0)) (not (= (+ ?x6497 ?x9810) 9.0))) $x5450))))
 (let (($x6532 (not (= ?y3_st (RMk1 val!181)))))
 (let (($x6206 (not (= ?y2_st (RMk1 val!180)))))
 (and $x6206 $x6532 $x5842)))))))))))))))))))))))))))))
 )
 )
 )
 ))
 (let (($x5343 (forall ((?y2 Real) )(let (($x7616 (forall ((?y5 Real) )(! (let (($x11661 (< (+ (+ (* (- 57.0) ?y5) (* 42.0 ?y2)) (* 26.0 x1)) 0.0)))
 (or (<= (* 60.0 x1) (- 7.0)) $x11661)) :qid k!20))
 ))
 (let (($x2431 (exists ((?y3 Real) )(! (exists ((?y4 Real) )(! (let (($x11397 (exists ((?y5 Real) )(! (let ((?x10651 (* 75.0 x1)))
 (let ((?x12104 (+ (+ (+ (* (- 39.0) ?y5) (* (- 19.0) ?y4)) (* 50.0 ?y3)) ?x10651)))
 (let ((?x7059 (+ (+ (+ (* (- 95.0) ?y5) (* 51.0 ?y4)) (* 73.0 ?y3)) (* (- 11.0) x1))))
 (and (<= ?x7059 57.0) (not (= ?x12104 0.0)))))) :qid k!20))
 ))
 (let (($x10114 (= (+ (+ (* 11.0 ?y4) (* (- 99.0) ?y3)) (* (- 77.0) x1)) 0.0)))
 (let (($x1979 (and (not $x10114) (> (+ (* 65.0 ?y2) (* (- 61.0) x1)) (- 64.0)))))
 (let ((?x10554 (* 28.0 x1)))
 (let ((?x5365 (+ (+ (+ (* 71.0 ?y4) (* (- 83.0) ?y3)) (* 19.0 ?y2)) ?x10554)))
 (let (($x3286 (<= (+ (+ (* 21.0 ?y3) (* 30.0 ?y2)) (* (- 80.0) x1)) 45.0)))
 (and (or (and $x3286 (= ?x5365 42.0)) $x1979) $x11397))))))) :qid k!20))
  :qid k!20))
 ))
 (and $x2431 $x7616))))
 ))
 (let (($x3651 (forall ((?y2 Real) )(let (($x1308 (exists ((?y3 Real) )(! (let (($x11081 (not (= (+ (* 91.0 ?y2) (* 77.0 x1)) 0.0))))
 (let (($x8247 (>= (+ (+ (* (- 29.0) ?y3) (* 36.0 ?y2)) (* (- 86.0) x1)) 0.0)))
 (and $x8247 $x11081))) :qid k!20))
 ))
 (let (($x2590 (exists ((?y3 Real) )(! (> (+ (+ (* (- 22.0) ?y3) (* (- 22.0) ?y2)) (* 96.0 x1)) 0.0) :qid k!20))
 ))
 (or $x2590 $x1308))))
 ))
 (let (($x6807 (exists ((?y2_st RealState) (val!179 Real) )(forall ((?y3 Real) )(let ((?x11869 (- 46.0)))
 (let (($x12619 (> (+ (* 35.0 ?y3) (* (- 75.0) x1)) ?x11869)))
 (let (($x10998 (not (= ?y2_st (RMk1 val!179)))))
 (and $x10998 $x12619)))))
 )
 ))
 (let (($x11232 (forall ((?y2 Real) )(let (($x5830 (exists ((?y3 Real) )(! (let ((?x2151 (- 35.0)))
 (>= (+ (+ (* 59.0 ?y3) (* (- 58.0) ?y2)) (* 43.0 x1)) ?x2151)) :qid k!20))
 ))
 (let (($x10939 (not (= (+ (* 55.0 ?y2) (* 100.0 x1)) 0.0))))
 (let (($x10905 (and (or (< (+ (* 76.0 ?y2) (* (- 97.0) x1)) 97.0) $x10939) $x5830)))
 (let (($x1200 (and (> (+ (* 52.0 ?y2) (* 8.0 x1)) 14.0) (>= (+ (* (- 95.0) ?y2) (* 4.0 x1)) 76.0))))
 (let (($x634 (and (<= (+ (* 59.0 ?y2) (* 12.0 x1)) (- 72.0)) (<= (* 26.0 x1) 0.0))))
 (let (($x4785 (forall ((?y3 Real) )(! (let (($x1252 (= (+ (* 60.0 ?y3) (* 75.0 ?y2)) 0.0)))
 (and (< (+ (* 84.0 ?y3) (* 33.0 ?y2)) 0.0) $x1252)) :qid k!20))
 ))
 (or $x4785 (and (and $x634 $x1200) $x10905)))))))))
 ))
 (let (($x12989 (forall ((?y2 Real) )(let (($x3382 (>= (+ (* 98.0 ?y2) (* 88.0 x1)) 0.0)))
 (or $x3382 (>= (* (- 91.0) ?y2) 0.0))))
 ))
 (let (($x9109 (exists ((?y2_st RealState) (val!178 Real) )(let (($x11628 (not (= ?y2_st (RMk1 val!178)))))
 (and $x11628 (< (+ (* 18.0 (rval2 ?y2_st)) (* 28.0 x1)) 16.0))))
 ))
 (let (($x11289 (forall ((?y2 Real) )(let (($x3235 (exists ((?y3 Real) )(! (<= (+ (+ (* 28.0 ?y3) (* (- 41.0) ?y2)) (* (- 84.0) x1)) 0.0) :qid k!20))
 ))
 (let (($x7294 (and (< (+ (* 4.0 ?y2) (* 79.0 x1)) 34.0) (>= (* 47.0 ?y2) (- 74.0)))))
 (and $x7294 $x3235))))
 ))
 (let (($x7028 (exists ((?y2_st RealState) (val!177 Real) )(let (($x9371 (exists ((?y3 Real) )(! (< (+ (* 72.0 (rval2 ?y2_st)) (* (- 88.0) x1)) 34.0) :qid k!20))
 ))
 (let (($x5452 (exists ((?y3 Real) )(! (= (+ (* (- 85.0) ?y3) (* 82.0 (rval2 ?y2_st))) 48.0) :qid k!20))
 ))
 (let (($x2314 (forall ((?y4 Real) )(! (not (= (+ (* (- 56.0) ?y4) (* (- 80.0) x1)) 42.0)) :qid k!20))
 ))
 (let (($x11628 (not (= ?y2_st (RMk1 val!177)))))
 (and $x11628 (and $x2314 (or $x5452 $x9371))))))))
 ))
 (let (($x11367 (exists ((?y2_st RealState) (val!174 Real) )(exists ((?y3_st RealState) (val!175 Real) )(forall ((?y4 Real) )(forall ((?y5 Real) )(exists ((?y6_st RealState) (val!176 Real) )(let ((?x655 (* 67.0 x1)))
 (let ((?x5906 (* 81.0 (rval2 ?y2_st))))
 (let ((?x10873 (+ (+ (* (- 96.0) (rval2 ?y6_st)) (* (- 46.0) ?y5)) (* 1.0 ?y4))))
 (let (($x11628 (not (= ?y6_st (RMk1 val!176)))))
 (let (($x6206 (not (= ?y3_st (RMk1 val!175)))))
 (let (($x9361 (not (= ?y2_st (RMk1 val!174)))))
 (and $x9361 $x6206 $x11628 (<= (+ (+ (+ ?x10873 (* (- 75.0) (rval2 ?y3_st))) ?x5906) ?x655) 0.0)))))))))
 )
 )
 )
 )
 ))
 (let (($x3722 (or (and $x11367 (or $x7028 (or $x11289 (or $x9109 $x12989)))) (and $x11232 (or $x6807 $x3651)))))
 (let (($x2613 (exists ((?y1_st RealState) (val!173 Real) )(forall ((?y2 Real) )(forall ((?y3 Real) )(let (($x1171 (forall ((?y4 Real) )(! (let (($x10397 (forall ((?y6 Real) )(! (let ((?x128 (- 11.0)))
 (let ((?x8074 (* 9.0 ?y2)))
 (let ((?x2464 (+ (+ (+ (* 74.0 ?y6) (* (- 22.0) ?y4)) (* (- 87.0) ?y3)) ?x8074)))
 (let (($x3274 (>= (+ ?x2464 (* (- 72.0) x1)) ?x128)))
 (let ((?x5731 (- 4.0)))
 (let ((?x11026 (* ?x5731 x1)))
 (let ((?x277 (rval2 ?y1_st)))
 (let ((?x6075 (* 98.0 ?x277)))
 (let ((?x5548 (+ (+ (+ (* 25.0 ?y6) (* 63.0 ?y4)) (* 5.0 ?y3)) (* (- 44.0) ?y2))))
 (or (>= (+ (+ ?x5548 ?x6075) ?x11026) ?x128) $x3274)))))))))) :qid k!20))
 ))
 (let ((?x5438 (- 67.0)))
 (let ((?x2398 (* 95.0 x1)))
 (let ((?x2325 (+ (+ (+ (* (- 79.0) ?y4) (* 34.0 ?y2)) (* 75.0 (rval2 ?y1_st))) ?x2398)))
 (let ((?x10651 (* 75.0 x1)))
 (let ((?x4778 (+ (+ (* (- 91.0) ?y4) (* (- 38.0) ?y3)) (* 29.0 ?y2))))
 (let (($x5657 (and (> (+ (+ ?x4778 (* (- 98.0) (rval2 ?y1_st))) ?x10651) 48.0) (<= ?x2325 ?x5438))))
 (or $x5657 $x10397)))))))) :qid k!20))
 ))
 (let ((?x6575 (- 71.0)))
 (let ((?x3975 (* 97.0 x1)))
 (let ((?x10970 (+ (+ (+ (* 27.0 ?y3) (* 45.0 ?y2)) (* (- 35.0) (rval2 ?y1_st))) ?x3975)))
 (let (($x12435 (>= (+ (+ (* (- 55.0) ?y3) (* 16.0 ?y2)) (* 10.0 x1)) 49.0)))
 (let (($x9165 (forall ((?y4 Real) )(! (forall ((?y5 Real) )(! (let ((?x5287 (+ (+ (* (- 5.0) ?y5) (* (- 90.0) ?y4)) (* 12.0 ?y2))))
 (let ((?x936 (+ (+ (* (- 4.0) ?y4) (* (- 1.0) ?y3)) (* (- 14.0) ?y2))))
 (and (= (+ ?x936 (* (- 94.0) (rval2 ?y1_st))) 0.0) (<= (+ ?x5287 (* 83.0 (rval2 ?y1_st))) 29.0)))) :qid k!20))
  :qid k!20))
 ))
 (let (($x10364 (exists ((?y5 Real) )(! (let ((?x10797 (- 75.0)))
 (let ((?x6309 (* ?x10797 x1)))
 (let ((?x2897 (* 42.0 ?y2)))
 (let ((?x7147 (+ (+ (* 58.0 ?y5) (* (- 70.0) ?y3)) ?x2897)))
 (>= (+ (+ ?x7147 (* (- 87.0) (rval2 ?y1_st))) ?x6309) 46.0))))) :qid k!20))
 ))
 (let (($x11600 (< (+ (+ (* 74.0 ?y3) (* 18.0 ?y2)) (* (- 63.0) x1)) 0.0)))
 (let ((?x10634 (* 10.0 x1)))
 (let ((?x4683 (+ (* (- 82.0) ?y3) (* (- 32.0) ?y2))))
 (let ((?x8632 (* 13.0 x1)))
 (let ((?x3994 (* (- 85.0) ?y3)))
 (let ((?x5810 (+ ?x3994 (* 56.0 ?y2))))
 (let (($x2450 (or (= (+ (+ ?x5810 (* (- 9.0) (rval2 ?y1_st))) ?x8632) 6.0) (not (= (+ (+ ?x4683 (* 62.0 (rval2 ?y1_st))) ?x10634) 0.0)))))
 (let ((?x5683 (- 95.0)))
 (let ((?x6678 (* ?x5683 x1)))
 (let (($x5943 (<= (+ (+ (* (- 13.0) ?y3) (* 79.0 (rval2 ?y1_st))) ?x6678) 0.0)))
 (let (($x10167 (exists ((?y5 Real) )(! (let ((?x10150 (- 54.0)))
 (let ((?x12005 (* ?x10150 x1)))
 (let ((?x4252 (+ (+ (+ (* (- 76.0) ?y5) (* 40.0 ?y2)) (* 60.0 (rval2 ?y1_st))) ?x12005)))
 (let ((?x3384 (- 28.0)))
 (let ((?x10812 (- 23.0)))
 (let ((?x10229 (* ?x10812 x1)))
 (let ((?x10561 (* (- 56.0) ?y5)))
 (let ((?x9220 (+ ?x10561 (* 35.0 ?y2))))
 (or (> (+ (+ ?x9220 (* (- 57.0) (rval2 ?y1_st))) ?x10229) ?x3384) (= ?x4252 0.0)))))))))) :qid k!20))
 ))
 (let (($x10655 (exists ((?y5 Real) )(! (let (($x1657 (exists ((?y6 Real) )(! (let ((?x5790 (* 73.0 x1)))
 (let ((?x7016 (+ (+ (+ (* 59.0 ?y6) (* (- 55.0) ?y5)) (* 3.0 (rval2 ?y1_st))) ?x5790)))
 (let ((?x277 (rval2 ?y1_st)))
 (let ((?x12972 (* 46.0 ?x277)))
 (let ((?x1543 (+ (+ (+ (* 83.0 ?y6) (* 73.0 ?y5)) (* (- 72.0) ?y3)) (* (- 35.0) ?y2))))
 (or (<= (+ (+ ?x1543 ?x12972) ?x5790) 6.0) (= ?x7016 42.0))))))) :qid k!20))
 ))
 (let (($x2827 (forall ((?y6 Real) )(! (let ((?x8431 (* 9.0 x1)))
 (let ((?x9300 (+ (+ (+ (* (- 68.0) ?y6) (* (- 60.0) ?y5)) (* 17.0 ?y3)) (* (- 66.0) ?y2))))
 (<= (+ (+ ?x9300 (* (- 90.0) (rval2 ?y1_st))) ?x8431) 0.0))) :qid k!20))
 ))
 (let (($x8777 (<= (+ (+ (* 16.0 ?y5) (* 83.0 (rval2 ?y1_st))) (* 30.0 x1)) 0.0)))
 (and (or (and (= (* (- 39.0) (rval2 ?y1_st)) (- 36.0)) $x8777) $x2827) $x1657)))) :qid k!20))
 ))
 (let (($x10140 (or (or $x10655 (or (and $x10167 $x5943) $x2450)) (and (and (or (or $x11600 $x10364) $x9165) (and $x12435 (< ?x10970 ?x6575))) $x1171))))
 (let (($x6958 (forall ((?y5 Real) )(! (let (($x5634 (forall ((?y6 Real) )(! (let ((?x5308 (- 29.0)))
 (let ((?x1049 (+ (+ (* (- 35.0) ?y6) (* (- 1.0) ?y5)) (* (- 62.0) ?y3))))
 (let (($x8117 (>= ?x1049 ?x5308)))
 (let (($x2216 (= (+ (+ (* 79.0 ?y6) (* (- 95.0) ?y5)) (* (- 77.0) x1)) 0.0)))
 (let (($x827 (not $x2216)))
 (let ((?x13091 (* 80.0 x1)))
 (let ((?x11772 (+ (+ (+ (* 62.0 ?y6) (* (- 83.0) ?y5)) (* 37.0 (rval2 ?y1_st))) ?x13091)))
 (let ((?x10869 (* 15.0 ?y2)))
 (let ((?x9809 (+ (+ (* 17.0 ?y5) (* 47.0 ?y3)) ?x10869)))
 (or (<= (+ ?x9809 (* (- 62.0) (rval2 ?y1_st))) 0.0) (or (or (not (= ?x11772 0.0)) $x827) $x8117))))))))))) :qid k!20))
 ))
 (let (($x12370 (exists ((?y6 Real) )(! (let ((?x8344 (* 43.0 ?y2)))
 (let ((?x538 (+ (+ (* 27.0 ?y5) (* (- 60.0) ?y3)) ?x8344)))
 (let ((?x4761 (- 30.0)))
 (let ((?x277 (rval2 ?y1_st)))
 (let ((?x6864 (* 90.0 ?x277)))
 (let ((?x11667 (+ (+ (* (- 98.0) ?y6) (* 13.0 ?y5)) (* 68.0 ?y2))))
 (let (($x6619 (and (= (+ ?x11667 ?x6864) ?x4761) (<= (+ ?x538 (* (- 41.0) ?x277)) 6.0))))
 (let ((?x1089 (- 14.0)))
 (let ((?x5306 (* ?x1089 x1)))
 (let ((?x10986 (* 11.0 ?x277)))
 (let ((?x11707 (+ (+ (* 41.0 ?y5) (* 14.0 ?y3)) (* (- 21.0) ?y2))))
 (let ((?x9442 (* 31.0 x1)))
 (let ((?x8908 (* 4.0 ?x277)))
 (let ((?x5947 (- 36.0)))
 (let ((?x13084 (* ?x5947 ?y2)))
 (let ((?x10919 (+ (+ (* 93.0 ?y6) (* (- 8.0) ?y3)) ?x13084)))
 (let (($x11799 (and (<= (+ (+ ?x10919 ?x8908) ?x9442) 69.0) (>= (+ (+ ?x11707 ?x10986) ?x5306) 64.0))))
 (let ((?x11272 (* 15.0 x1)))
 (let ((?x6124 (+ (+ (+ (* 6.0 ?y6) (* (- 29.0) ?y5)) (* 5.0 ?y3)) (* (- 54.0) ?y2))))
 (let ((?x655 (* 67.0 x1)))
 (let ((?x7730 (* 28.0 ?x277)))
 (let ((?x11000 (+ (+ (+ (* 22.0 ?y6) (* 46.0 ?y5)) (* (- 48.0) ?y3)) (* (- 1.0) ?y2))))
 (let (($x9236 (or (>= (+ (+ ?x11000 ?x7730) ?x655) 0.0) (<= (+ (+ ?x6124 (* (- 65.0) ?x277)) ?x11272) 0.0))))
 (let ((?x13192 (- 60.0)))
 (let ((?x4827 (* ?x13192 x1)))
 (let ((?x9363 (* 94.0 ?x277)))
 (let ((?x7325 (+ (+ (* (- 11.0) ?y5) (* 94.0 ?y3)) (* (- 58.0) ?y2))))
 (let ((?x2557 (- 25.0)))
 (let ((?x12214 (* ?x2557 x1)))
 (let ((?x2354 (+ (+ (+ (* 12.0 ?y6) (* 24.0 ?y5)) (* (- 9.0) ?y3)) ?x13084)))
 (let (($x6937 (or (< (+ (+ ?x2354 (* (- 26.0) ?x277)) ?x12214) 4.0) (>= (+ (+ ?x7325 ?x9363) ?x4827) 0.0))))
 (or (or $x6937 $x9236) (and $x11799 $x6619))))))))))))))))))))))))))))))))) :qid k!20))
 ))
 (and $x12370 $x5634))) :qid k!20))
 ))
 (let (($x6532 (not (= ?y1_st (RMk1 val!173)))))
 (and $x6532 (or $x6958 $x10140)))))))))))))))))))))))))
 )
 )
 ))
 (or $x2613 (or (and (or $x3722 $x5343) $x7685) (and $x570 $x6003))))))))))))))))))
(check-sat)
